--------------------------------------------------
s SATISFIABLE
benchmarks_SAT/INST_9x9/25/inst9x9_25_0.cnf : 11 ms.
--------------------------------------------------
s SATISFIABLE
benchmarks_SAT/INST_9x9/25/inst9x9_25_10.cnf : 14 ms.
--------------------------------------------------
s SATISFIABLE
benchmarks_SAT/INST_9x9/25/inst9x9_25_11.cnf : 10 ms.
--------------------------------------------------
s SATISFIABLE
benchmarks_SAT/INST_9x9/25/inst9x9_25_12.cnf : 10 ms.
--------------------------------------------------
s SATISFIABLE
benchmarks_SAT/INST_9x9/25/inst9x9_25_13.cnf : 10 ms.
--------------------------------------------------
s SATISFIABLE
benchmarks_SAT/INST_9x9/25/inst9x9_25_14.cnf : 12 ms.
--------------------------------------------------
s SATISFIABLE
benchmarks_SAT/INST_9x9/25/inst9x9_25_15.cnf : 9 ms.
--------------------------------------------------
s SATISFIABLE
benchmarks_SAT/INST_9x9/25/inst9x9_25_16.cnf : 7 ms.
--------------------------------------------------
s SATISFIABLE
benchmarks_SAT/INST_9x9/25/inst9x9_25_17.cnf : 7 ms.
--------------------------------------------------
s SATISFIABLE
benchmarks_SAT/INST_9x9/25/inst9x9_25_18.cnf : 9 ms.
--------------------------------------------------
s SATISFIABLE
benchmarks_SAT/INST_9x9/25/inst9x9_25_19.cnf : 8 ms.
--------------------------------------------------
s SATISFIABLE
benchmarks_SAT/INST_9x9/25/inst9x9_25_1.cnf : 7 ms.
--------------------------------------------------
s SATISFIABLE
benchmarks_SAT/INST_9x9/25/inst9x9_25_20.cnf : 9 ms.
--------------------------------------------------
s SATISFIABLE
benchmarks_SAT/INST_9x9/25/inst9x9_25_21.cnf : 12 ms.
--------------------------------------------------
s SATISFIABLE
benchmarks_SAT/INST_9x9/25/inst9x9_25_22.cnf : 8 ms.
--------------------------------------------------
s SATISFIABLE
benchmarks_SAT/INST_9x9/25/inst9x9_25_23.cnf : 7 ms.
--------------------------------------------------
s SATISFIABLE
benchmarks_SAT/INST_9x9/25/inst9x9_25_24.cnf : 8 ms.
--------------------------------------------------
s SATISFIABLE
benchmarks_SAT/INST_9x9/25/inst9x9_25_25.cnf : 8 ms.
--------------------------------------------------
s SATISFIABLE
benchmarks_SAT/INST_9x9/25/inst9x9_25_26.cnf : 9 ms.
--------------------------------------------------
s SATISFIABLE
benchmarks_SAT/INST_9x9/25/inst9x9_25_27.cnf : 8 ms.
--------------------------------------------------
s SATISFIABLE
benchmarks_SAT/INST_9x9/25/inst9x9_25_28.cnf : 8 ms.
--------------------------------------------------
s SATISFIABLE
benchmarks_SAT/INST_9x9/25/inst9x9_25_29.cnf : 9 ms.
--------------------------------------------------
s SATISFIABLE
benchmarks_SAT/INST_9x9/25/inst9x9_25_2.cnf : 7 ms.
--------------------------------------------------
s SATISFIABLE
benchmarks_SAT/INST_9x9/25/inst9x9_25_30.cnf : 7 ms.
--------------------------------------------------
s SATISFIABLE
benchmarks_SAT/INST_9x9/25/inst9x9_25_31.cnf : 8 ms.
--------------------------------------------------
s SATISFIABLE
benchmarks_SAT/INST_9x9/25/inst9x9_25_32.cnf : 11 ms.
--------------------------------------------------
s SATISFIABLE
benchmarks_SAT/INST_9x9/25/inst9x9_25_33.cnf : 11 ms.
--------------------------------------------------
s SATISFIABLE
benchmarks_SAT/INST_9x9/25/inst9x9_25_34.cnf : 9 ms.
--------------------------------------------------
s SATISFIABLE
benchmarks_SAT/INST_9x9/25/inst9x9_25_35.cnf : 9 ms.
--------------------------------------------------
s SATISFIABLE
benchmarks_SAT/INST_9x9/25/inst9x9_25_36.cnf : 8 ms.
--------------------------------------------------
s SATISFIABLE
benchmarks_SAT/INST_9x9/25/inst9x9_25_37.cnf : 7 ms.
--------------------------------------------------
s SATISFIABLE
benchmarks_SAT/INST_9x9/25/inst9x9_25_38.cnf : 8 ms.
--------------------------------------------------
s SATISFIABLE
benchmarks_SAT/INST_9x9/25/inst9x9_25_39.cnf : 7 ms.
--------------------------------------------------
s SATISFIABLE
benchmarks_SAT/INST_9x9/25/inst9x9_25_3.cnf : 7 ms.
--------------------------------------------------
s SATISFIABLE
benchmarks_SAT/INST_9x9/25/inst9x9_25_40.cnf : 9 ms.
--------------------------------------------------
s SATISFIABLE
benchmarks_SAT/INST_9x9/25/inst9x9_25_41.cnf : 8 ms.
--------------------------------------------------
s SATISFIABLE
benchmarks_SAT/INST_9x9/25/inst9x9_25_42.cnf : 8 ms.
--------------------------------------------------
s SATISFIABLE
benchmarks_SAT/INST_9x9/25/inst9x9_25_43.cnf : 9 ms.
--------------------------------------------------
s SATISFIABLE
benchmarks_SAT/INST_9x9/25/inst9x9_25_44.cnf : 11 ms.
--------------------------------------------------
s SATISFIABLE
benchmarks_SAT/INST_9x9/25/inst9x9_25_45.cnf : 9 ms.
--------------------------------------------------
s SATISFIABLE
benchmarks_SAT/INST_9x9/25/inst9x9_25_46.cnf : 8 ms.
--------------------------------------------------
s SATISFIABLE
benchmarks_SAT/INST_9x9/25/inst9x9_25_47.cnf : 7 ms.
--------------------------------------------------
s SATISFIABLE
benchmarks_SAT/INST_9x9/25/inst9x9_25_48.cnf : 11 ms.
--------------------------------------------------
s SATISFIABLE
benchmarks_SAT/INST_9x9/25/inst9x9_25_49.cnf : 7 ms.
--------------------------------------------------
s SATISFIABLE
benchmarks_SAT/INST_9x9/25/inst9x9_25_4.cnf : 8 ms.
--------------------------------------------------
s SATISFIABLE
benchmarks_SAT/INST_9x9/25/inst9x9_25_50.cnf : 9 ms.
--------------------------------------------------
s SATISFIABLE
benchmarks_SAT/INST_9x9/25/inst9x9_25_51.cnf : 8 ms.
--------------------------------------------------
s SATISFIABLE
benchmarks_SAT/INST_9x9/25/inst9x9_25_52.cnf : 7 ms.
--------------------------------------------------
s SATISFIABLE
benchmarks_SAT/INST_9x9/25/inst9x9_25_53.cnf : 8 ms.
--------------------------------------------------
s SATISFIABLE
benchmarks_SAT/INST_9x9/25/inst9x9_25_54.cnf : 9 ms.
--------------------------------------------------
s SATISFIABLE
benchmarks_SAT/INST_9x9/25/inst9x9_25_55.cnf : 7 ms.
--------------------------------------------------
s SATISFIABLE
benchmarks_SAT/INST_9x9/25/inst9x9_25_56.cnf : 7 ms.
--------------------------------------------------
s SATISFIABLE
benchmarks_SAT/INST_9x9/25/inst9x9_25_57.cnf : 8 ms.
--------------------------------------------------
s SATISFIABLE
benchmarks_SAT/INST_9x9/25/inst9x9_25_58.cnf : 7 ms.
--------------------------------------------------
s SATISFIABLE
benchmarks_SAT/INST_9x9/25/inst9x9_25_59.cnf : 8 ms.
--------------------------------------------------
s SATISFIABLE
benchmarks_SAT/INST_9x9/25/inst9x9_25_5.cnf : 9 ms.
--------------------------------------------------
s SATISFIABLE
benchmarks_SAT/INST_9x9/25/inst9x9_25_60.cnf : 8 ms.
--------------------------------------------------
s SATISFIABLE
benchmarks_SAT/INST_9x9/25/inst9x9_25_61.cnf : 8 ms.
--------------------------------------------------
s SATISFIABLE
benchmarks_SAT/INST_9x9/25/inst9x9_25_62.cnf : 9 ms.
--------------------------------------------------
s SATISFIABLE
benchmarks_SAT/INST_9x9/25/inst9x9_25_63.cnf : 9 ms.
--------------------------------------------------
s SATISFIABLE
benchmarks_SAT/INST_9x9/25/inst9x9_25_64.cnf : 9 ms.
--------------------------------------------------
s SATISFIABLE
benchmarks_SAT/INST_9x9/25/inst9x9_25_65.cnf : 10 ms.
--------------------------------------------------
s SATISFIABLE
benchmarks_SAT/INST_9x9/25/inst9x9_25_66.cnf : 8 ms.
--------------------------------------------------
s SATISFIABLE
benchmarks_SAT/INST_9x9/25/inst9x9_25_67.cnf : 8 ms.
--------------------------------------------------
s SATISFIABLE
benchmarks_SAT/INST_9x9/25/inst9x9_25_68.cnf : 7 ms.
--------------------------------------------------
s SATISFIABLE
benchmarks_SAT/INST_9x9/25/inst9x9_25_69.cnf : 8 ms.
--------------------------------------------------
s SATISFIABLE
benchmarks_SAT/INST_9x9/25/inst9x9_25_6.cnf : 7 ms.
--------------------------------------------------
s SATISFIABLE
benchmarks_SAT/INST_9x9/25/inst9x9_25_70.cnf : 7 ms.
--------------------------------------------------
s SATISFIABLE
benchmarks_SAT/INST_9x9/25/inst9x9_25_71.cnf : 7 ms.
--------------------------------------------------
s SATISFIABLE
benchmarks_SAT/INST_9x9/25/inst9x9_25_72.cnf : 9 ms.
--------------------------------------------------
s SATISFIABLE
benchmarks_SAT/INST_9x9/25/inst9x9_25_73.cnf : 8 ms.
--------------------------------------------------
s SATISFIABLE
benchmarks_SAT/INST_9x9/25/inst9x9_25_74.cnf : 7 ms.
--------------------------------------------------
s SATISFIABLE
benchmarks_SAT/INST_9x9/25/inst9x9_25_75.cnf : 7 ms.
--------------------------------------------------
s SATISFIABLE
benchmarks_SAT/INST_9x9/25/inst9x9_25_76.cnf : 8 ms.
--------------------------------------------------
s SATISFIABLE
benchmarks_SAT/INST_9x9/25/inst9x9_25_77.cnf : 8 ms.
--------------------------------------------------
s SATISFIABLE
benchmarks_SAT/INST_9x9/25/inst9x9_25_78.cnf : 9 ms.
--------------------------------------------------
s SATISFIABLE
benchmarks_SAT/INST_9x9/25/inst9x9_25_79.cnf : 9 ms.
--------------------------------------------------
s SATISFIABLE
benchmarks_SAT/INST_9x9/25/inst9x9_25_7.cnf : 8 ms.
--------------------------------------------------
s SATISFIABLE
benchmarks_SAT/INST_9x9/25/inst9x9_25_80.cnf : 9 ms.
--------------------------------------------------
s SATISFIABLE
benchmarks_SAT/INST_9x9/25/inst9x9_25_81.cnf : 8 ms.
--------------------------------------------------
s SATISFIABLE
benchmarks_SAT/INST_9x9/25/inst9x9_25_82.cnf : 9 ms.
--------------------------------------------------
s SATISFIABLE
benchmarks_SAT/INST_9x9/25/inst9x9_25_83.cnf : 8 ms.
--------------------------------------------------
s SATISFIABLE
benchmarks_SAT/INST_9x9/25/inst9x9_25_84.cnf : 8 ms.
--------------------------------------------------
s SATISFIABLE
benchmarks_SAT/INST_9x9/25/inst9x9_25_85.cnf : 8 ms.
--------------------------------------------------
s SATISFIABLE
benchmarks_SAT/INST_9x9/25/inst9x9_25_86.cnf : 8 ms.
--------------------------------------------------
s SATISFIABLE
benchmarks_SAT/INST_9x9/25/inst9x9_25_87.cnf : 8 ms.
--------------------------------------------------
s SATISFIABLE
benchmarks_SAT/INST_9x9/25/inst9x9_25_88.cnf : 8 ms.
--------------------------------------------------
s SATISFIABLE
benchmarks_SAT/INST_9x9/25/inst9x9_25_89.cnf : 8 ms.
--------------------------------------------------
s SATISFIABLE
benchmarks_SAT/INST_9x9/25/inst9x9_25_8.cnf : 7 ms.
--------------------------------------------------
s SATISFIABLE
benchmarks_SAT/INST_9x9/25/inst9x9_25_90.cnf : 8 ms.
--------------------------------------------------
s SATISFIABLE
benchmarks_SAT/INST_9x9/25/inst9x9_25_91.cnf : 9 ms.
--------------------------------------------------
s SATISFIABLE
benchmarks_SAT/INST_9x9/25/inst9x9_25_92.cnf : 9 ms.
--------------------------------------------------
s SATISFIABLE
benchmarks_SAT/INST_9x9/25/inst9x9_25_93.cnf : 8 ms.
--------------------------------------------------
s SATISFIABLE
benchmarks_SAT/INST_9x9/25/inst9x9_25_94.cnf : 9 ms.
--------------------------------------------------
s SATISFIABLE
benchmarks_SAT/INST_9x9/25/inst9x9_25_95.cnf : 8 ms.
--------------------------------------------------
s SATISFIABLE
benchmarks_SAT/INST_9x9/25/inst9x9_25_96.cnf : 8 ms.
--------------------------------------------------
s SATISFIABLE
benchmarks_SAT/INST_9x9/25/inst9x9_25_97.cnf : 9 ms.
--------------------------------------------------
s SATISFIABLE
benchmarks_SAT/INST_9x9/25/inst9x9_25_98.cnf : 8 ms.
--------------------------------------------------
s SATISFIABLE
benchmarks_SAT/INST_9x9/25/inst9x9_25_99.cnf : 8 ms.
--------------------------------------------------
s SATISFIABLE
benchmarks_SAT/INST_9x9/25/inst9x9_25_9.cnf : 7 ms.
